c Sudoku solution
p cnf 729 0
111 0
217 0
232 0
276 0
284 0
342 0
367 0
388 0
435 0
469 0
519 0
521 0
593 0
662 0
671 0
696 0
689 0
794 0
812 0
422 0
487 0
498 0
474 0
828 0
618 0
138 0
837 0
627 0
926 0
949 0
978 0
982 0
752 0
585 0
572 0
192 0
177 0
997 0
747 0
768 0
786 0
731 0
729 0
159 0
299 0
391 0
339 0
316 0
914 0
933 0
715 0
773 0
413 0
634 0
536 0
557 0
258 0
548 0
564 0
375 0
183 0
879 0
881 0
895 0
125 0
324 0
223 0
144 0
353 0
166 0
854 0
655 0
643 0
846 0
863 0
245 0
261 0
441 0
456 0
951 0
965 0
